p cnf 20 20
1 -6 -2 0
13 2 -9 0
4 13 -12 0
-19 -3 -5 0
9 -3 7 0
-9 19 -13 0
2 -12 -19 0
1 14 9 0
7 12 -14 0
-3 -17 5 0
9 2 1 0
-17 -20 8 0
13 11 -7 0
20 -15 13 0
15 -13 1 0
16 -6 17 0
-6 -11 20 0
-2 -7 11 0
3 1 15 0
16 13 -1 0
